nums_node = 4;

nums_edge_collision = 4;

nums_edge_adjacent = 6;

node_area=[0.5,0.25,0.5,0.25];
node_perimeter=[3.414,1.707,3.414,1.707];

from_adjacent = [1, 2, 1, 3, 4, 2];
to_adjacent =   [2, 1, 3, 1, 2, 4];

align_length=[1,1,1,1,0.707,0.707];

from_collision = [2,3,3,4];
to_collision =   [3,2,4,3];

contour_area = 1.0;